







































































































18 50 45 36 41 17 14 
22 34 64 63 58 74 3 
76 37 57 53 52 59 51 
10 69 68 60 11 23 9 32 
56 15 65 49 38 19 61 
44 2 72 4 20 5 73 
12 67 26 7 13 1 40 
27 43 31 62 8 6 29 
25 54 39 24 55 16 0 
70 33 75 28 42 71 
35 21 48 30 47 46 66 
